acell 3*9.832628820807678 Angstrom
angdeg 3*24.27924918376835
ecut 60
enunit 2
natom 5
nband 38
nspinor 2
nsppol 1
ntypat 2
typat 1 1 1 2 2
xred
0.0    0.0    0.0
0.2109 0.2109 0.2109
0.7891 0.7891 0.7891
0.4006 0.4006 0.4006
0.5994 0.5994 0.5994

znucl 34.0 83.0


ngkpt 6 6 6 
nshiftk 1 
shiftk 0.5 0.5 0.5
prtden 1 
toldfe 1e-12 
kptopt 1 
