&inputpp
  outdir='../scf'
  prefix='bi'
  seedname='bi'
  wan_mode='standalone'  
  write_amn =.false.
  write_mmn =.true.
  write_dmn =.true.
  regular_mesh = .false.
/  
