Bi
1.0
    4.7458       0.0000000000       0.0000000000
    2.56851       3.99066       0.0000000000
    2.56851       1.40137       3.73651
2
Direct
0.23389 0.23389 0.23389 
-0.23389 -0.23389 -0.23389
