acell 3*9.832628820807678 Angstrom
angdeg 3*24.27924918376835
ecut 60
enunit 2
natom 5
nband 38
nspinor 2
nsppol 1
ntypat 2
typat 1 1 1 2 2
xred
0.0    0.0    0.0
0.2109 0.2109 0.2109
0.7891 0.7891 0.7891
0.4006 0.4006 0.4006
0.5994 0.5994 0.5994

znucl 34.0 83.0

iscf -2
tolwfr 1e-21
irdwfk 1
irdden 1
prtwant 2
nstep 100
