&inputpp
  prefix='Bi'
  outdir='../scf'
  seedname='bi'
  isym=0
/
