acell  3*6.4588 Angstroms
angdeg 3*90
rprim  0.0 0.5 0.5
       0.5 0.0 0.5
       0.5 0.5 0.0

ntypat 2
znucl 80 52

natom 2
typat 1 2
xred          0.0000000000d0  0.0000000000d0  0.0000000000d0
              0.25d0          0.25d0          0.25d0

ecut 80
enunit 2
nband 28
nspinor 2
nsppol 1

iscf -2
tolwfr 1e-21
irdwfk 1
irdden 1
prtwant 2
nstep 100
