acell 3*4.7458 Angstrom
angdeg 3*57.23338683919874
ecut 50
enunit 2
natom 2
nband 16
nspinor 2
nsppol 1
nstep 100
ntypat 1
typat 1 1
xred
0.23389 0.23389 0.23389
-0.23389 -0.23389 -0.23389
znucl 83.0


ngkpt 4 4 4
nshiftk 1
shiftk 0.5 0.5 0.5
prtden 1
toldfe 1e-9
kptopt 1
