orth HgTe
1.0
0.                 -2.663564227601396  3.654410120269116
2.306714285714285  1.331782113800698   3.654410120269116
-2.306714285714285 1.331782113800698   3.654410120269116
1 1
Direct
0.0 0.0 0.0     !Hg
0.25 0.25 0.25  !Te
