acell  3*4.613404207636881 Angstroms    
angdeg 3*58.6944

ntypat 2
znucl 80 52

natom 2
typat 1 2
xred          0.0000000000d0  0.0000000000d0  0.0000000000d0
              0.25d0          0.25d0          0.25d0

ecut 80
enunit 2
nband 28
nspinor 2
nsppol 1

iscf -2
tolwfr 1e-21
irdden 1
nstep 100


kptbounds
0.5 0.5 0.
0. 0. 0.
0.5 0.5 0.5

kptopt -2
ndivk 20 20
