SYSTEM = Bi

NCORE=1
PREC = A
LSORBIT = .TRUE.
GGA_COMPAT = .FALSE.
ISMEAR =  0
SIGMA  =  0.05
GGA    = PE
ENCUT = 260.00 eV
MAGMOM = 36*0.0
ICHARG = 11

LPEAD=.FALSE.  
LWANNIER90=.TRUE.
LWRITE_MMN_AMN = .TRUE.
ISYM = -1

NBANDS = 15 
LWAVE = .FALSE.
